;; Mutation-Based Equivalence Benchmark
;; Source:     AutomatArk / instance13738.smt2
;; Mutations:  bound_upper_inc, range_shrink_hi
;; Status:     sat
;;
;; Original regex vs mutated regex
;; Equivalence check: unsat ⟺ L(R1) = L(R2)

(set-info :smt-lib-version 2.6)
(set-info :category "mutation")
(set-info :status sat)
(set-logic QF_S)


;; R1: original
;; R2: mutated (bound_upper_inc, range_shrink_hi)
(assert
  (not
    (=
      (re.union (re.++ ((_ re.loop 4 4) (re.range "0" "9")) (str.to_re "-") ((_ re.loop 4 4) (re.range "0" "9")) (str.to_re "-") ((_ re.loop 2 2) (re.range "0" "9"))) (re.++ ((_ re.loop 5 5) (re.range "0" "9")) (str.to_re "-") ((_ re.loop 3 3) (re.range "0" "9")) (str.to_re "-") ((_ re.loop 2 2) (re.range "0" "9"))) (re.++ ((_ re.loop 5 5) (re.range "0" "9")) (str.to_re "-") ((_ re.loop 4 4) (re.range "0" "9")) (str.to_re "-") ((_ re.loop 1 1) (re.range "0" "9"))) (re.++ ((_ re.loop 5 5) (re.range "0" "9")) (str.to_re "-*") ((_ re.loop 3 3) (re.range "0" "9")) (str.to_re "-") ((_ re.loop 2 2) (re.range "0" "9")) (str.to_re "\u{a}")))
      (re.union (re.++ ((_ re.loop 4 4) (re.range "0" "8")) (str.to_re "-") ((_ re.loop 4 4) (re.range "0" "9")) (str.to_re "-") ((_ re.loop 2 2) (re.range "0" "9"))) (re.++ ((_ re.loop 5 5) (re.range "0" "9")) (str.to_re "-") ((_ re.loop 3 3) (re.range "0" "9")) (str.to_re "-") ((_ re.loop 2 2) (re.range "0" "9"))) (re.++ ((_ re.loop 5 5) (re.range "0" "9")) (str.to_re "-") ((_ re.loop 4 5) (re.range "0" "9")) (str.to_re "-") ((_ re.loop 1 1) (re.range "0" "9"))) (re.++ ((_ re.loop 5 5) (re.range "0" "9")) (str.to_re "-*") ((_ re.loop 3 3) (re.range "0" "9")) (str.to_re "-") ((_ re.loop 2 2) (re.range "0" "9")) (str.to_re "\u{a}"))))))

(check-sat)
(exit)
